
Gurobi 9.5.2 (win64) logging started Mon Mar 27 20:28:15 2023

Set parameter LogFile to value "2023-03-27_20hr-25min-09sec/Nodes40_Arcs55_LocNodes30/Formulation-2Instance-3.log"
Set parameter TimeLimit to value 600
Set parameter IntFeasTol to value 1e-09
Set parameter DualReductions to value 0
Set parameter NonConvex to value 2
Gurobi Optimizer version 9.5.2 build v9.5.2rc0 (win64)
Thread count: 4 physical cores, 8 logical processors, using up to 8 threads
Optimize a model with 166 rows, 290 columns and 610 nonzeros
Model fingerprint: 0x1472fc43
Model has 95 quadratic objective terms
Model has 95 SOS constraints
Variable types: 260 continuous, 30 integer (30 binary)
Coefficient statistics:
  Matrix range     [1e-02, 2e+02]
  Objective range  [1e-01, 1e+03]
  QObjective range [2e-02, 8e+00]
  Bounds range     [1e+00, 1e+00]
  RHS range        [1e-01, 3e+03]
Presolve removed 15 rows and 16 columns
Presolve time: 0.00s
Presolved: 151 rows, 274 columns, 583 nonzeros
Presolved model has 93 SOS constraint(s)
Presolved model has 93 quadratic objective terms
Variable types: 244 continuous, 30 integer (30 binary)

Root relaxation: objective 1.061789e+06, 342 iterations, 0.00 seconds (0.00 work units)

    Nodes    |    Current Node    |     Objective Bounds      |     Work
 Expl Unexpl |  Obj  Depth IntInf | Incumbent    BestBd   Gap | It/Node Time

     0     0 1061788.73    0   15          - 1061788.73      -     -    0s
H    0     0                    1044150.7257 1061788.73  1.69%     -    0s
H    0     0                    1048027.1845 1061788.73  1.31%     -    0s
     0     0 1061590.68    0   18 1048027.18 1061590.68  1.29%     -    0s
H    0     0                    1059355.7492 1061590.68  0.21%     -    0s
     0     0 1061225.74    0   18 1059355.75 1061225.74  0.18%     -    0s
H    0     0                    1059356.8807 1061225.74  0.18%     -    0s
H    0     0                    1059672.6300 1061225.74  0.15%     -    0s
     0     0 1060863.56    0    9 1059672.63 1060863.56  0.11%     -    0s
     0     0 1060863.56    0    8 1059672.63 1060863.56  0.11%     -    0s
     0     0 1060863.56    0    8 1059672.63 1060863.56  0.11%     -    0s
     0     0 1060863.56    0   25 1059672.63 1060863.56  0.11%     -    0s
     0     0 1060665.26    0   28 1059672.63 1060665.26  0.09%     -    0s
     0     0 1060626.15    0   29 1059672.63 1060626.15  0.09%     -    0s
H    0     0                    1059720.2812 1060626.15  0.09%     -    0s
     0     0 1060626.15    0   24 1059720.28 1060626.15  0.09%     -    0s
H    0     0                    1059822.7900 1060626.15  0.08%     -    0s
     0     0 1060555.51    0   24 1059822.79 1060555.51  0.07%     -    0s
     0     0 1060555.51    0   24 1059822.79 1060555.51  0.07%     -    0s
     0     0 1060384.88    0   10 1059822.79 1060384.88  0.05%     -    0s
     0     0 1060384.88    0    9 1059822.79 1060384.88  0.05%     -    0s
     0     0 1060165.67    0   10 1059822.79 1060165.67  0.03%     -    0s

Cutting planes:
  Cover: 1
  MIR: 3
  Flow cover: 4

Explored 1 nodes (1026 simplex iterations) in 0.21 seconds (0.05 work units)
Thread count was 8 (of 8 available processors)

Solution count 7: 1.05982e+06 1.05972e+06 1.05967e+06 ... 1.04415e+06

Optimal solution found (tolerance 1.00e-04)
Best objective 1.059822790003e+06, best bound 1.059897356840e+06, gap 0.0070%

User-callback calls 400, time in user-callback 0.00 sec
